p tw 43 47
1 2
2 13
3 4
4 5
5 37
6 7
7 8
8 9
9 10
10 11
11 12
12 14
12 15
13 24
14 37
15 16
16 17
17 18
17 19
18 37
19 20
20 21
21 22
22 23
23 25
23 26
24 35
25 37
26 27
27 28
28 29
29 30
30 31
31 32
32 33
33 34
34 36
35 39
35 42
36 37
37 38
39 40
40 41
41 37
42 43
43 3
43 6
